p cnf 73 231
4 -2 0
4 -3 0
2 3 -4 0
-1 4 -5 0
1 -4 -5 0
-1 -4 5 0
1 4 5 0
8 -6 0
8 -7 0
6 7 -8 0
11 -9 0
11 -10 0
9 10 -11 0
-12 8 0
-12 11 0
-8 -11 12 0
13 14 -15 0
-13 -14 -15 0
13 -14 15 0
-13 14 15 0
16 15 0
16 15 0
-15 -16 0
17 16 0
17 15 0
-16 -15 -17 0
-12 -17 -18 0
12 17 -18 0
-12 17 18 0
12 -17 18 0
1 18 -19 0
-1 -18 -19 0
1 -18 19 0
-1 18 19 0
-5 19 -20 0
5 -19 -20 0
-5 -19 20 0
5 19 20 0
2 -14 -21 0
-2 14 -21 0
2 14 21 0
-2 -14 21 0
-22 -14 0
-22 -13 0
14 13 22 0
-23 -22 0
-23 -9 0
22 9 23 0
24 1 0
24 -8 0
-1 8 -24 0
25 -23 0
25 24 0
23 -24 -25 0
-26 -21 0
-26 25 0
21 -25 26 0
27 -20 0
27 -26 0
20 26 -27 0
28 -13 0
28 -6 0
13 6 -28 0
-29 -10 0
-29 -28 0
10 28 29 0
-30 29 0
-30 -13 0
-29 13 30 0
31 -22 0
31 -30 0
22 30 -31 0
32 -31 0
32 4 0
31 -4 -32 0
-34 3 0
-34 -30 0
-3 30 34 0
35 33 0
35 34 0
-33 -34 -35 0
32 35 -36 0
-32 -35 -36 0
32 -35 36 0
-32 35 36 0
-37 -9 0
-37 -33 0
9 33 37 0
38 -1 0
38 37 0
1 -37 -38 0
39 -38 0
39 8 0
38 -8 -39 0
40 36 0
40 39 0
-36 -39 -40 0
42 -6 0
42 -41 0
6 41 -42 0
16 -42 -43 0
-16 42 -43 0
16 42 43 0
-16 -42 43 0
44 40 0
44 -43 0
-40 43 -44 0
45 9 0
45 -14 0
-9 14 -45 0
-46 -13 0
-46 7 0
13 -7 46 0
-47 45 0
-47 46 0
-45 -46 47 0
-48 -30 0
-48 -38 0
30 38 48 0
51 49 0
51 -50 0
-49 50 -51 0
-52 -48 0
-52 51 0
48 -51 52 0
-47 -52 -53 0
47 52 -53 0
-47 52 53 0
47 -52 53 0
54 -44 0
54 53 0
44 -53 -54 0
-55 41 0
-55 -33 0
-41 33 55 0
55 4 -56 0
-55 -4 -56 0
55 -4 56 0
-55 4 56 0
57 9 0
57 56 0
-9 -56 -57 0
-58 -7 -59 0
58 7 -59 0
-58 7 59 0
58 -7 59 0
60 57 0
60 59 0
-57 -59 -60 0
61 17 0
61 -18 0
-17 18 -61 0
60 -61 -62 0
-60 61 -62 0
60 61 62 0
-60 -61 62 0
63 3 0
63 1 0
-3 -1 -63 0
64 63 0
64 -11 0
-63 11 -64 0
65 -62 0
65 -64 0
62 64 -65 0
66 -33 0
66 11 0
33 -11 -66 0
67 -8 0
67 10 0
8 -10 -67 0
68 -66 0
68 -67 0
66 67 -68 0
69 -28 0
69 -16 0
28 16 -69 0
68 -69 -70 0
-68 69 -70 0
68 69 70 0
-68 -69 70 0
65 -70 -71 0
-65 70 -71 0
65 70 71 0
-65 -70 71 0
-54 71 -72 0
54 -71 -72 0
-54 -71 72 0
54 71 72 0
-73 27 0
-73 -72 0
-27 72 73 0
17 -47 26 0
-17 68 0
22 -62 31 -63 25 -5 0
46 10 -21 -36 73 49 0
64 -20 -25 0
-22 -61 -33 -67 -47 0
16 -70 -46 -3 -37 -21 0
36 -17 -24 0
-7 4 68 24 11 0
-62 -64 -18 0
-67 -22 4 21 0
48 -47 -4 -6 34 0
-42 -10 0
25 19 50 26 41 -18 0
-33 -17 4 0
-29 -62 67 68 0
45 -56 -12 -26 0
-2 69 0
1 -40 52 59 21 49 0
11 -24 -67 -20 0
-29 5 22 -4 0
-5 64 25 63 18 0
-11 71 -58 41 8 0
-71 14 -57 -52 -12 -34 0
24 -62 -14 37 57 0
26 35 -6 49 -71 0
62 -60 53 14 9 0
-20 -26 0
33 67 -52 -23 39 0
54 -37 -71 -15 -45 0
-61 26 -33 0
-67 46 0
37 -21 15 -8 -2 0
69 45 -40 0
7 -25 64 57 -9 0
-47 3 -13 64 35 0
19 5 -72 -70 -50 2 0
-1 -53 -73 -11 -69 -47 0
73 0
